language Essence 1.3
letting nnodes be 10
letting nrings be 6
letting capacity be 5
letting demand be {{1, 2},
{1, 5},
{1, 7},
{2, 3},
{2, 4},
{2, 5},
{3, 5},
{4, 8},
{5, 6},
{5, 7},
{5, 8},
{6, 7},
{6, 8},
{7, 9},
{9, 10}}
